1455
6448
7288
8074
1306
3659
5369
1110
9838
7115
1826
6973
4157
1817
8441
8457
6395
3628
6372
5144
7269
7658
877
9950
2345
2474
3286
4751
8237
6357
3814
6579
1749
3572
6142
5926
9294
2072
1211
9815
946
9087
9420
8599
3336
2140
9263
975
8712
2567
6216
